100
9
0 1 101 201 301 401 501 601 701
9
0 2 102 202 302 402 502 602 702
9
0 3 103 203 303 403 503 603 703
9
0 4 104 204 304 404 504 604 704
9
0 5 105 205 305 405 505 605 705
9
0 6 106 206 306 406 506 606 706
9
0 7 107 207 307 407 507 607 707
9
0 8 108 208 308 408 508 608 708
9
0 9 109 209 309 409 509 609 709
9
0 10 110 210 310 410 510 610 710
9
0 11 111 211 311 411 511 611 711
9
0 12 112 212 312 412 512 612 712
9
0 13 113 213 313 413 513 613 713
9
0 14 114 214 314 414 514 614 714
9
0 15 115 215 315 415 515 615 715
9
0 16 116 216 316 416 516 616 716
9
0 17 117 217 317 417 517 617 717
9
0 18 118 218 318 418 518 618 718
9
0 19 119 219 319 419 519 619 719
9
0 20 120 220 320 420 520 620 720
9
0 21 121 221 321 421 521 621 721
9
0 22 122 222 322 422 522 622 722
9
0 23 123 223 323 423 523 623 723
8
0 24 124 224 324 424 524 624
8
0 25 125 225 325 425 525 625
8
0 26 126 226 326 426 526 626
8
0 27 127 227 327 427 527 627
8
0 28 128 228 328 428 528 628
8
0 29 129 229 329 429 529 629
8
0 30 130 230 330 430 530 630
8
0 31 131 231 331 431 531 631
8
0 32 132 232 332 432 532 632
8
0 33 133 233 333 433 533 633
8
0 34 134 234 334 434 534 634
8
0 35 135 235 335 435 535 635
8
0 36 136 236 336 436 536 636
8
0 37 137 237 337 437 537 637
8
0 38 138 238 338 438 538 638
8
0 39 139 239 339 439 539 639
8
0 40 140 240 340 440 540 640
8
0 41 141 241 341 441 541 641
8
0 42 142 242 342 442 542 642
8
0 43 143 243 343 443 543 643
8
0 44 144 244 344 444 544 644
8
0 45 145 245 345 445 545 645
8
0 46 146 246 346 446 546 646
8
0 47 147 247 347 447 547 647
8
0 48 148 248 348 448 548 648
8
0 49 149 249 349 449 549 649
8
0 50 150 250 350 450 550 650
8
0 51 151 251 351 451 551 651
8
0 52 152 252 352 452 552 652
8
0 53 153 253 353 453 553 653
8
0 54 154 254 354 454 554 654
8
0 55 155 255 355 455 555 655
8
0 56 156 256 356 456 556 656
8
0 57 157 257 357 457 557 657
8
0 58 158 258 358 458 558 658
8
0 59 159 259 359 459 559 659
8
0 60 160 260 360 460 560 660
8
0 61 161 261 361 461 561 661
8
0 62 162 262 362 462 562 662
8
0 63 163 263 363 463 563 663
8
0 64 164 264 364 464 564 664
8
0 65 165 265 365 465 565 665
8
0 66 166 266 366 466 566 666
8
0 67 167 267 367 467 567 667
8
0 68 168 268 368 468 568 668
8
0 69 169 269 369 469 569 669
8
0 70 170 270 370 470 570 670
8
0 71 171 271 371 471 571 671
8
0 72 172 272 372 472 572 672
8
0 73 173 273 373 473 573 673
8
0 74 174 274 374 474 574 674
8
0 75 175 275 375 475 575 675
8
0 76 176 276 376 476 576 676
8
0 77 177 277 377 477 577 677
8
0 78 178 278 378 478 578 678
8
0 79 179 279 379 479 579 679
8
0 80 180 280 380 480 580 680
8
0 81 181 281 381 481 581 681
8
0 82 182 282 382 482 582 682
8
0 83 183 283 383 483 583 683
8
0 84 184 284 384 484 584 684
8
0 85 185 285 385 485 585 685
8
0 86 186 286 386 486 586 686
8
0 87 187 287 387 487 587 687
8
0 88 188 288 388 488 588 688
8
0 89 189 289 389 489 589 689
8
0 90 190 290 390 490 590 690
8
0 91 191 291 391 491 591 691
8
0 92 192 292 392 492 592 692
8
0 93 193 293 393 493 593 693
8
0 94 194 294 394 494 594 694
8
0 95 195 295 395 495 595 695
8
0 96 196 296 396 496 596 696
8
0 97 197 297 397 497 597 697
8
0 98 198 298 398 498 598 698
8
0 99 199 299 399 499 599 699
8
0 100 200 300 400 500 600 700
